p edge 250 3074
e 0 1
e 0 11
e 0 28
e 0 35
e 0 36
e 0 42
e 0 62
e 0 65
e 0 74
e 0 79
e 0 100
e 0 105
e 0 108
e 0 133
e 0 142
e 0 143
e 0 146
e 0 157
e 0 163
e 0 172
e 0 178
e 0 183
e 0 192
e 0 196
e 0 201
e 0 205
e 0 214
e 0 221
e 0 232
e 0 240
e 1 2
e 1 3
e 1 15
e 1 35
e 1 41
e 1 51
e 1 61
e 1 62
e 1 68
e 1 70
e 1 72
e 1 109
e 1 110
e 1 121
e 1 131
e 1 134
e 1 140
e 1 168
e 1 178
e 1 184
e 1 187
e 1 204
e 1 210
e 1 218
e 1 221
e 1 228
e 1 235
e 1 240
e 2 3
e 2 5
e 2 7
e 2 26
e 2 27
e 2 52
e 2 59
e 2 128
e 2 130
e 2 148
e 2 164
e 2 188
e 2 191
e 2 210
e 2 211
e 2 216
e 2 218
e 2 229
e 2 248
e 2 249
e 3 12
e 3 17
e 3 39
e 3 47
e 3 51
e 3 64
e 3 95
e 3 98
e 3 116
e 3 120
e 3 121
e 3 122
e 3 147
e 3 165
e 3 173
e 3 185
e 3 186
e 3 205
e 3 223
e 3 246
e 4 29
e 4 43
e 4 58
e 4 74
e 4 75
e 4 79
e 4 80
e 4 91
e 4 107
e 4 119
e 4 132
e 4 138
e 4 159
e 4 190
e 4 197
e 4 204
e 4 226
e 4 239
e 4 242
e 5 8
e 5 10
e 5 16
e 5 34
e 5 71
e 5 133
e 5 136
e 5 139
e 5 146
e 5 154
e 5 159
e 5 163
e 5 187
e 5 199
e 5 214
e 5 233
e 5 248
e 6 8
e 6 13
e 6 66
e 6 91
e 6 101
e 6 103
e 6 108
e 6 146
e 6 163
e 6 175
e 6 180
e 6 185
e 6 192
e 6 194
e 6 199
e 6 208
e 6 217
e 6 218
e 6 234
e 6 243
e 7 12
e 7 37
e 7 58
e 7 63
e 7 66
e 7 69
e 7 85
e 7 89
e 7 94
e 7 101
e 7 106
e 7 124
e 7 125
e 7 138
e 7 161
e 7 197
e 7 214
e 7 223
e 7 228
e 8 22
e 8 24
e 8 38
e 8 40
e 8 42
e 8 60
e 8 68
e 8 75
e 8 76
e 8 77
e 8 81
e 8 92
e 8 95
e 8 117
e 8 151
e 8 162
e 8 188
e 8 205
e 8 215
e 8 216
e 8 224
e 8 240
e 9 31
e 9 32
e 9 37
e 9 41
e 9 54
e 9 56
e 9 70
e 9 86
e 9 95
e 9 99
e 9 112
e 9 127
e 9 132
e 9 146
e 9 154
e 9 167
e 9 190
e 9 201
e 9 208
e 9 209
e 9 214
e 9 219
e 9 229
e 9 241
e 9 246
e 10 27
e 10 47
e 10 52
e 10 57
e 10 86
e 10 88
e 10 89
e 10 94
e 10 105
e 10 111
e 10 114
e 10 146
e 10 160
e 10 161
e 10 164
e 10 177
e 10 214
e 10 221
e 10 231
e 10 232
e 10 248
e 11 46
e 11 55
e 11 57
e 11 62
e 11 64
e 11 68
e 11 79
e 11 82
e 11 109
e 11 129
e 11 133
e 11 134
e 11 144
e 11 146
e 11 147
e 11 163
e 11 166
e 11 172
e 11 178
e 11 198
e 11 200
e 11 226
e 11 234
e 12 13
e 12 21
e 12 49
e 12 58
e 12 63
e 12 75
e 12 90
e 12 93
e 12 119
e 12 137
e 12 142
e 12 161
e 12 166
e 12 172
e 12 175
e 12 176
e 12 208
e 12 211
e 12 223
e 12 224
e 12 239
e 12 240
e 13 14
e 13 15
e 13 65
e 13 76
e 13 89
e 13 97
e 13 101
e 13 110
e 13 115
e 13 116
e 13 126
e 13 128
e 13 133
e 13 138
e 13 145
e 13 147
e 13 150
e 13 160
e 13 180
e 13 191
e 13 195
e 13 202
e 13 209
e 13 231
e 13 240
e 13 246
e 14 31
e 14 40
e 14 42
e 14 52
e 14 66
e 14 88
e 14 94
e 14 96
e 14 97
e 14 103
e 14 180
e 14 190
e 14 193
e 14 218
e 14 221
e 14 228
e 14 230
e 14 233
e 14 238
e 15 16
e 15 38
e 15 69
e 15 76
e 15 80
e 15 82
e 15 104
e 15 107
e 15 114
e 15 127
e 15 159
e 15 186
e 15 188
e 15 192
e 15 195
e 15 198
e 15 203
e 15 205
e 15 218
e 15 220
e 15 226
e 15 235
e 15 243
e 16 26
e 16 27
e 16 37
e 16 44
e 16 46
e 16 49
e 16 72
e 16 76
e 16 77
e 16 105
e 16 106
e 16 129
e 16 145
e 16 171
e 16 182
e 16 206
e 16 207
e 16 213
e 16 214
e 16 218
e 16 222
e 16 225
e 16 237
e 16 249
e 17 39
e 17 40
e 17 48
e 17 49
e 17 68
e 17 79
e 17 85
e 17 103
e 17 110
e 17 111
e 17 121
e 17 153
e 17 158
e 17 194
e 17 195
e 17 218
e 17 226
e 18 23
e 18 38
e 18 41
e 18 46
e 18 90
e 18 103
e 18 107
e 18 117
e 18 125
e 18 132
e 18 140
e 18 142
e 18 149
e 18 150
e 18 165
e 18 172
e 18 179
e 18 189
e 18 196
e 18 202
e 18 206
e 18 210
e 18 229
e 18 230
e 18 244
e 19 38
e 19 68
e 19 70
e 19 72
e 19 86
e 19 90
e 19 102
e 19 108
e 19 114
e 19 126
e 19 127
e 19 132
e 19 140
e 19 154
e 19 161
e 19 175
e 19 181
e 19 182
e 19 191
e 19 217
e 19 219
e 19 227
e 19 232
e 19 237
e 20 22
e 20 30
e 20 40
e 20 55
e 20 56
e 20 58
e 20 66
e 20 77
e 20 98
e 20 106
e 20 120
e 20 124
e 20 149
e 20 158
e 20 197
e 20 204
e 20 214
e 20 222
e 20 229
e 20 240
e 21 54
e 21 57
e 21 58
e 21 63
e 21 78
e 21 94
e 21 95
e 21 97
e 21 108
e 21 112
e 21 134
e 21 141
e 21 146
e 21 147
e 21 171
e 21 173
e 21 177
e 21 186
e 21 187
e 21 213
e 21 223
e 21 235
e 21 238
e 21 243
e 21 244
e 22 36
e 22 38
e 22 52
e 22 54
e 22 62
e 22 70
e 22 79
e 22 98
e 22 102
e 22 103
e 22 105
e 22 106
e 22 125
e 22 127
e 22 146
e 22 151
e 22 153
e 22 160
e 22 175
e 22 205
e 22 221
e 22 241
e 23 39
e 23 83
e 23 111
e 23 130
e 23 134
e 23 137
e 23 148
e 23 157
e 23 177
e 23 180
e 23 190
e 23 204
e 23 207
e 23 212
e 23 223
e 23 240
e 23 242
e 23 247
e 24 27
e 24 36
e 24 51
e 24 62
e 24 66
e 24 71
e 24 117
e 24 133
e 24 141
e 24 144
e 24 166
e 24 192
e 24 193
e 24 215
e 24 223
e 24 224
e 24 233
e 24 234
e 24 236
e 24 237
e 25 33
e 25 34
e 25 49
e 25 51
e 25 63
e 25 74
e 25 79
e 25 95
e 25 112
e 25 130
e 25 133
e 25 139
e 25 142
e 25 148
e 25 151
e 25 173
e 25 185
e 25 203
e 25 205
e 25 222
e 25 224
e 25 234
e 25 242
e 26 33
e 26 52
e 26 59
e 26 73
e 26 82
e 26 90
e 26 93
e 26 97
e 26 122
e 26 124
e 26 143
e 26 147
e 26 150
e 26 157
e 26 159
e 26 171
e 26 176
e 26 191
e 26 193
e 26 194
e 26 212
e 26 239
e 27 40
e 27 42
e 27 45
e 27 48
e 27 57
e 27 60
e 27 71
e 27 72
e 27 82
e 27 84
e 27 97
e 27 106
e 27 115
e 27 118
e 27 129
e 27 135
e 27 158
e 27 179
e 27 193
e 27 196
e 27 209
e 27 215
e 27 234
e 27 236
e 27 245
e 28 29
e 28 42
e 28 64
e 28 68
e 28 69
e 28 76
e 28 97
e 28 100
e 28 103
e 28 105
e 28 124
e 28 140
e 28 151
e 28 157
e 28 164
e 28 189
e 28 199
e 28 202
e 28 213
e 28 224
e 28 231
e 28 234
e 28 235
e 28 236
e 28 240
e 28 247
e 29 107
e 29 138
e 29 145
e 29 148
e 29 155
e 29 160
e 29 167
e 29 170
e 29 176
e 29 189
e 29 192
e 29 203
e 29 210
e 29 225
e 29 241
e 29 245
e 29 246
e 30 33
e 30 45
e 30 52
e 30 72
e 30 73
e 30 74
e 30 75
e 30 91
e 30 94
e 30 96
e 30 97
e 30 102
e 30 104
e 30 122
e 30 150
e 30 155
e 30 172
e 30 188
e 30 190
e 30 209
e 30 219
e 30 229
e 30 244
e 30 249
e 31 47
e 31 49
e 31 68
e 31 73
e 31 79
e 31 88
e 31 89
e 31 93
e 31 96
e 31 106
e 31 108
e 31 119
e 31 128
e 31 158
e 31 172
e 31 179
e 31 184
e 31 187
e 31 209
e 31 210
e 31 217
e 31 218
e 32 54
e 32 65
e 32 67
e 32 71
e 32 85
e 32 86
e 32 87
e 32 107
e 32 119
e 32 122
e 32 158
e 32 167
e 32 176
e 32 178
e 32 191
e 32 210
e 32 222
e 32 227
e 32 231
e 33 45
e 33 53
e 33 60
e 33 62
e 33 71
e 33 78
e 33 91
e 33 106
e 33 110
e 33 117
e 33 123
e 33 125
e 33 128
e 33 129
e 33 132
e 33 138
e 33 163
e 33 190
e 33 193
e 33 202
e 33 207
e 33 209
e 33 241
e 33 247
e 34 37
e 34 39
e 34 42
e 34 56
e 34 59
e 34 62
e 34 64
e 34 73
e 34 76
e 34 112
e 34 130
e 34 132
e 34 134
e 34 137
e 34 151
e 34 157
e 34 162
e 34 168
e 34 170
e 34 183
e 34 209
e 34 241
e 34 246
e 35 40
e 35 56
e 35 96
e 35 110
e 35 120
e 35 129
e 35 130
e 35 157
e 35 160
e 35 171
e 35 178
e 35 185
e 35 193
e 35 210
e 35 227
e 35 238
e 35 240
e 36 39
e 36 66
e 36 120
e 36 122
e 36 128
e 36 139
e 36 144
e 36 145
e 36 149
e 36 152
e 36 156
e 36 175
e 36 179
e 36 189
e 36 192
e 36 198
e 36 211
e 36 229
e 37 40
e 37 57
e 37 71
e 37 72
e 37 73
e 37 77
e 37 80
e 37 89
e 37 92
e 37 123
e 37 136
e 37 141
e 37 156
e 37 184
e 37 205
e 37 234
e 38 39
e 38 42
e 38 57
e 38 60
e 38 70
e 38 78
e 38 89
e 38 94
e 38 106
e 38 111
e 38 128
e 38 140
e 38 143
e 38 149
e 38 156
e 38 167
e 38 168
e 38 193
e 38 214
e 38 220
e 38 233
e 39 41
e 39 56
e 39 58
e 39 81
e 39 107
e 39 116
e 39 121
e 39 127
e 39 132
e 39 149
e 39 155
e 39 159
e 39 161
e 39 171
e 39 183
e 39 190
e 39 194
e 39 197
e 39 201
e 39 234
e 39 236
e 39 240
e 39 244
e 40 53
e 40 60
e 40 61
e 40 64
e 40 88
e 40 92
e 40 109
e 40 135
e 40 136
e 40 142
e 40 143
e 40 175
e 40 199
e 40 200
e 40 216
e 40 223
e 40 224
e 40 231
e 40 232
e 40 233
e 40 236
e 40 239
e 40 243
e 40 244
e 40 245
e 41 43
e 41 50
e 41 52
e 41 80
e 41 86
e 41 92
e 41 94
e 41 102
e 41 105
e 41 111
e 41 116
e 41 130
e 41 134
e 41 140
e 41 180
e 41 184
e 41 186
e 41 196
e 41 203
e 41 211
e 41 213
e 41 214
e 41 216
e 41 237
e 42 47
e 42 58
e 42 103
e 42 127
e 42 128
e 42 183
e 42 195
e 42 199
e 42 203
e 42 217
e 43 72
e 43 78
e 43 79
e 43 93
e 43 98
e 43 103
e 43 118
e 43 130
e 43 133
e 43 144
e 43 154
e 43 162
e 43 181
e 43 187
e 43 189
e 43 196
e 43 197
e 43 198
e 43 221
e 43 226
e 43 227
e 43 230
e 43 240
e 43 244
e 44 46
e 44 48
e 44 57
e 44 64
e 44 82
e 44 95
e 44 111
e 44 123
e 44 133
e 44 144
e 44 156
e 44 159
e 44 170
e 44 171
e 44 189
e 44 190
e 44 202
e 44 237
e 44 243
e 45 60
e 45 81
e 45 82
e 45 101
e 45 108
e 45 116
e 45 119
e 45 126
e 45 140
e 45 144
e 45 145
e 45 159
e 45 169
e 45 186
e 45 198
e 45 211
e 45 212
e 45 213
e 45 218
e 45 234
e 45 236
e 46 55
e 46 74
e 46 120
e 46 139
e 46 149
e 46 175
e 46 196
e 46 198
e 46 201
e 46 204
e 47 53
e 47 63
e 47 88
e 47 93
e 47 97
e 47 105
e 47 106
e 47 114
e 47 115
e 47 117
e 47 190
e 47 202
e 47 231
e 47 246
e 48 54
e 48 74
e 48 89
e 48 103
e 48 120
e 48 132
e 48 145
e 48 149
e 48 150
e 48 155
e 48 157
e 48 174
e 48 189
e 48 208
e 48 213
e 48 226
e 48 232
e 49 93
e 49 133
e 49 136
e 49 150
e 49 159
e 49 200
e 49 218
e 49 222
e 49 228
e 49 245
e 49 249
e 50 73
e 50 77
e 50 99
e 50 108
e 50 116
e 50 147
e 50 158
e 50 165
e 50 168
e 50 179
e 50 198
e 50 215
e 50 220
e 50 223
e 51 52
e 51 55
e 51 57
e 51 66
e 51 70
e 51 74
e 51 88
e 51 95
e 51 99
e 51 125
e 51 139
e 51 141
e 51 148
e 51 152
e 51 189
e 51 195
e 51 196
e 51 206
e 51 209
e 51 210
e 51 238
e 51 248
e 52 61
e 52 76
e 52 85
e 52 90
e 52 92
e 52 94
e 52 107
e 52 128
e 52 131
e 52 133
e 52 146
e 52 155
e 52 159
e 52 162
e 52 192
e 52 203
e 52 244
e 53 70
e 53 78
e 53 82
e 53 91
e 53 92
e 53 97
e 53 105
e 53 115
e 53 121
e 53 125
e 53 141
e 53 147
e 53 156
e 53 173
e 53 179
e 53 193
e 53 202
e 53 207
e 53 227
e 53 242
e 53 246
e 54 57
e 54 62
e 54 63
e 54 65
e 54 66
e 54 68
e 54 69
e 54 87
e 54 91
e 54 92
e 54 99
e 54 106
e 54 107
e 54 133
e 54 144
e 54 154
e 54 156
e 54 157
e 54 159
e 54 173
e 54 185
e 54 189
e 54 198
e 54 209
e 54 219
e 54 223
e 54 229
e 55 59
e 55 61
e 55 74
e 55 81
e 55 108
e 55 129
e 55 130
e 55 169
e 55 179
e 55 186
e 55 192
e 55 214
e 55 217
e 55 229
e 55 241
e 55 242
e 56 78
e 56 88
e 56 112
e 56 113
e 56 119
e 56 123
e 56 125
e 56 134
e 56 155
e 56 157
e 56 167
e 56 175
e 56 197
e 56 199
e 56 203
e 56 207
e 56 215
e 56 231
e 56 242
e 56 248
e 57 61
e 57 62
e 57 66
e 57 69
e 57 72
e 57 74
e 57 80
e 57 108
e 57 114
e 57 131
e 57 152
e 57 154
e 57 156
e 57 158
e 57 163
e 57 172
e 57 182
e 57 183
e 57 209
e 57 227
e 57 234
e 57 244
e 57 247
e 57 248
e 58 67
e 58 82
e 58 95
e 58 115
e 58 159
e 58 165
e 58 203
e 58 232
e 58 248
e 59 67
e 59 80
e 59 83
e 59 84
e 59 95
e 59 97
e 59 111
e 59 113
e 59 117
e 59 138
e 59 150
e 59 155
e 59 205
e 59 206
e 59 215
e 59 224
e 59 247
e 60 61
e 60 74
e 60 85
e 60 94
e 60 95
e 60 122
e 60 137
e 60 151
e 60 162
e 60 211
e 60 212
e 60 215
e 60 217
e 60 224
e 60 227
e 60 229
e 60 236
e 60 240
e 60 247
e 61 65
e 61 66
e 61 77
e 61 87
e 61 89
e 61 96
e 61 108
e 61 127
e 61 128
e 61 132
e 61 133
e 61 141
e 61 152
e 61 159
e 61 173
e 61 177
e 61 184
e 61 197
e 61 200
e 61 211
e 61 240
e 61 241
e 62 66
e 62 68
e 62 124
e 62 126
e 62 145
e 62 146
e 62 150
e 62 176
e 62 199
e 62 217
e 62 220
e 62 232
e 62 235
e 63 64
e 63 65
e 63 69
e 63 71
e 63 82
e 63 84
e 63 87
e 63 102
e 63 124
e 63 136
e 63 149
e 63 157
e 63 158
e 63 172
e 63 178
e 63 188
e 63 194
e 63 204
e 63 209
e 63 212
e 63 213
e 63 227
e 63 232
e 63 249
e 64 67
e 64 69
e 64 80
e 64 84
e 64 94
e 64 95
e 64 106
e 64 134
e 64 150
e 64 158
e 64 160
e 64 162
e 64 197
e 64 203
e 64 206
e 64 209
e 64 217
e 64 236
e 65 67
e 65 75
e 65 76
e 65 88
e 65 90
e 65 102
e 65 131
e 65 141
e 65 150
e 65 158
e 65 162
e 65 165
e 65 169
e 65 171
e 65 175
e 65 181
e 65 197
e 65 198
e 65 224
e 65 238
e 65 241
e 66 82
e 66 83
e 66 84
e 66 87
e 66 108
e 66 111
e 66 114
e 66 118
e 66 131
e 66 134
e 66 139
e 66 145
e 66 177
e 66 190
e 66 193
e 66 208
e 66 219
e 66 228
e 66 229
e 66 234
e 66 235
e 66 237
e 66 239
e 66 240
e 66 244
e 66 247
e 67 73
e 67 74
e 67 94
e 67 95
e 67 126
e 67 135
e 67 145
e 67 154
e 67 181
e 67 186
e 67 204
e 67 206
e 67 229
e 67 232
e 68 77
e 68 95
e 68 102
e 68 104
e 68 122
e 68 125
e 68 133
e 68 136
e 68 138
e 68 146
e 68 158
e 68 166
e 68 170
e 68 220
e 68 221
e 68 241
e 69 72
e 69 76
e 69 79
e 69 88
e 69 106
e 69 111
e 69 118
e 69 171
e 69 172
e 69 174
e 69 177
e 69 181
e 69 185
e 69 186
e 69 201
e 69 209
e 69 231
e 69 240
e 70 72
e 70 84
e 70 86
e 70 103
e 70 104
e 70 106
e 70 109
e 70 128
e 70 155
e 70 160
e 70 185
e 70 200
e 70 219
e 70 220
e 71 75
e 71 78
e 71 81
e 71 90
e 71 93
e 71 97
e 71 107
e 71 110
e 71 120
e 71 128
e 71 129
e 71 173
e 71 184
e 71 185
e 71 209
e 71 226
e 71 228
e 71 231
e 71 243
e 71 247
e 72 75
e 72 82
e 72 111
e 72 132
e 72 138
e 72 139
e 72 140
e 72 155
e 72 174
e 72 180
e 72 190
e 72 192
e 72 199
e 72 206
e 72 219
e 72 220
e 72 226
e 72 230
e 72 246
e 73 81
e 73 83
e 73 90
e 73 95
e 73 97
e 73 102
e 73 112
e 73 120
e 73 122
e 73 139
e 73 143
e 73 151
e 73 165
e 73 172
e 73 177
e 73 189
e 73 202
e 73 208
e 73 211
e 73 212
e 73 215
e 73 226
e 73 236
e 74 79
e 74 80
e 74 90
e 74 91
e 74 116
e 74 139
e 74 161
e 74 162
e 74 166
e 74 176
e 74 181
e 74 189
e 74 193
e 74 206
e 74 223
e 74 234
e 74 237
e 75 77
e 75 87
e 75 91
e 75 92
e 75 93
e 75 95
e 75 106
e 75 109
e 75 114
e 75 136
e 75 137
e 75 159
e 75 161
e 75 171
e 75 174
e 75 192
e 75 197
e 75 248
e 76 89
e 76 91
e 76 94
e 76 101
e 76 105
e 76 107
e 76 111
e 76 119
e 76 121
e 76 122
e 76 125
e 76 132
e 76 136
e 76 149
e 76 152
e 76 154
e 76 160
e 76 165
e 76 178
e 76 179
e 76 193
e 76 195
e 76 197
e 76 209
e 76 211
e 76 225
e 76 229
e 76 230
e 76 244
e 76 249
e 77 79
e 77 82
e 77 89
e 77 108
e 77 129
e 77 131
e 77 171
e 77 201
e 77 208
e 77 213
e 77 216
e 77 218
e 78 100
e 78 103
e 78 120
e 78 128
e 78 134
e 78 143
e 78 149
e 78 151
e 78 153
e 78 169
e 78 191
e 78 196
e 78 199
e 78 209
e 78 218
e 78 219
e 78 236
e 79 80
e 79 82
e 79 91
e 79 97
e 79 104
e 79 113
e 79 122
e 79 123
e 79 152
e 79 214
e 79 219
e 79 223
e 80 93
e 80 95
e 80 109
e 80 116
e 80 152
e 80 158
e 80 175
e 80 178
e 80 179
e 80 180
e 80 183
e 80 194
e 80 224
e 80 230
e 81 99
e 81 102
e 81 106
e 81 116
e 81 119
e 81 165
e 81 182
e 81 207
e 81 210
e 81 221
e 82 83
e 82 119
e 82 120
e 82 134
e 82 145
e 82 147
e 82 183
e 82 184
e 82 187
e 82 188
e 82 189
e 82 200
e 82 204
e 82 219
e 82 227
e 82 231
e 82 234
e 82 240
e 83 85
e 83 87
e 83 101
e 83 102
e 83 125
e 83 133
e 83 137
e 83 155
e 83 171
e 83 197
e 83 218
e 83 230
e 83 238
e 83 249
e 84 87
e 84 99
e 84 124
e 84 126
e 84 137
e 84 142
e 84 167
e 84 193
e 84 194
e 84 196
e 84 200
e 84 201
e 84 207
e 84 216
e 84 237
e 85 105
e 85 117
e 85 127
e 85 140
e 85 146
e 85 151
e 85 154
e 85 203
e 85 206
e 85 215
e 85 225
e 85 236
e 85 240
e 85 249
e 86 95
e 86 104
e 86 122
e 86 127
e 86 128
e 86 130
e 86 131
e 86 137
e 86 149
e 86 155
e 86 167
e 86 173
e 86 174
e 86 182
e 86 198
e 86 200
e 86 208
e 86 213
e 86 223
e 86 240
e 86 242
e 86 244
e 86 246
e 87 90
e 87 96
e 87 125
e 87 138
e 87 166
e 87 192
e 87 194
e 87 203
e 87 229
e 87 238
e 87 239
e 88 92
e 88 103
e 88 104
e 88 113
e 88 126
e 88 129
e 88 133
e 88 135
e 88 142
e 88 144
e 88 157
e 88 165
e 88 167
e 88 172
e 88 174
e 88 179
e 88 182
e 88 196
e 88 198
e 88 200
e 88 211
e 88 217
e 88 219
e 88 220
e 88 224
e 88 241
e 88 247
e 89 98
e 89 100
e 89 113
e 89 140
e 89 142
e 89 161
e 89 166
e 89 173
e 89 175
e 89 184
e 89 201
e 89 203
e 89 205
e 89 239
e 90 92
e 90 97
e 90 102
e 90 113
e 90 119
e 90 122
e 90 127
e 90 133
e 90 138
e 90 141
e 90 142
e 90 159
e 90 160
e 90 167
e 90 168
e 90 169
e 90 179
e 90 192
e 90 193
e 90 203
e 90 222
e 90 249
e 91 98
e 91 109
e 91 118
e 91 122
e 91 144
e 91 148
e 91 189
e 91 209
e 91 216
e 91 226
e 91 232
e 91 240
e 91 248
e 92 96
e 92 123
e 92 126
e 92 135
e 92 141
e 92 142
e 92 145
e 92 152
e 92 156
e 92 169
e 92 175
e 92 196
e 92 201
e 92 228
e 92 232
e 92 236
e 92 241
e 93 109
e 93 112
e 93 113
e 93 132
e 93 145
e 93 150
e 93 158
e 93 160
e 93 166
e 93 168
e 93 181
e 93 182
e 93 184
e 93 199
e 93 206
e 93 210
e 93 213
e 93 222
e 93 230
e 93 235
e 94 115
e 94 126
e 94 136
e 94 142
e 94 150
e 94 157
e 94 168
e 94 173
e 94 179
e 94 194
e 94 203
e 94 208
e 94 213
e 94 215
e 94 216
e 94 222
e 94 224
e 94 225
e 94 226
e 94 234
e 95 96
e 95 118
e 95 129
e 95 134
e 95 135
e 95 137
e 95 144
e 95 159
e 95 160
e 95 164
e 95 172
e 95 192
e 95 198
e 95 200
e 95 208
e 95 209
e 95 215
e 95 222
e 95 224
e 95 229
e 95 232
e 95 233
e 95 235
e 96 108
e 96 110
e 96 120
e 96 138
e 96 140
e 96 150
e 96 154
e 96 166
e 96 167
e 96 172
e 96 174
e 96 195
e 96 214
e 96 215
e 96 216
e 96 217
e 96 244
e 97 98
e 97 100
e 97 105
e 97 109
e 97 112
e 97 114
e 97 126
e 97 142
e 97 151
e 97 156
e 97 166
e 97 171
e 97 222
e 97 226
e 97 238
e 97 249
e 98 130
e 98 139
e 98 152
e 98 158
e 98 177
e 98 186
e 98 189
e 98 195
e 98 198
e 98 203
e 98 219
e 98 228
e 98 241
e 98 249
e 99 103
e 99 119
e 99 123
e 99 126
e 99 131
e 99 150
e 99 151
e 99 157
e 99 169
e 99 175
e 99 189
e 99 193
e 99 200
e 99 215
e 99 227
e 99 249
e 100 105
e 100 106
e 100 115
e 100 147
e 100 164
e 100 177
e 100 186
e 100 191
e 100 221
e 100 222
e 100 227
e 100 239
e 100 246
e 101 107
e 101 109
e 101 113
e 101 135
e 101 139
e 101 140
e 101 159
e 101 171
e 101 172
e 101 173
e 101 182
e 101 201
e 101 211
e 101 212
e 101 214
e 101 218
e 101 227
e 101 233
e 101 242
e 101 245
e 101 247
e 102 104
e 102 117
e 102 122
e 102 147
e 102 157
e 102 160
e 102 164
e 102 171
e 102 172
e 102 183
e 102 196
e 102 199
e 103 124
e 103 128
e 103 153
e 103 158
e 103 161
e 103 165
e 103 169
e 103 177
e 103 188
e 103 191
e 103 216
e 103 218
e 103 240
e 104 109
e 104 115
e 104 134
e 104 139
e 104 149
e 104 153
e 104 180
e 104 194
e 104 203
e 104 210
e 104 212
e 104 232
e 104 233
e 104 242
e 104 246
e 105 107
e 105 110
e 105 113
e 105 119
e 105 136
e 105 148
e 105 154
e 105 162
e 105 164
e 105 167
e 105 176
e 105 180
e 105 186
e 105 187
e 105 192
e 105 213
e 105 233
e 105 238
e 105 239
e 105 248
e 106 107
e 106 109
e 106 116
e 106 127
e 106 138
e 106 142
e 106 162
e 106 170
e 106 181
e 106 187
e 106 195
e 106 200
e 106 202
e 106 204
e 106 211
e 106 228
e 107 112
e 107 120
e 107 138
e 107 147
e 107 154
e 107 185
e 107 199
e 107 219
e 107 227
e 107 228
e 107 231
e 108 109
e 108 126
e 108 140
e 108 155
e 108 169
e 108 173
e 108 182
e 108 183
e 108 192
e 108 196
e 108 203
e 108 221
e 109 122
e 109 150
e 109 152
e 109 160
e 109 174
e 109 180
e 109 190
e 109 196
e 109 217
e 109 220
e 109 223
e 109 226
e 109 237
e 110 141
e 110 142
e 110 145
e 110 148
e 110 160
e 110 161
e 110 162
e 110 167
e 110 176
e 110 179
e 110 180
e 110 207
e 110 225
e 110 237
e 111 113
e 111 117
e 111 131
e 111 139
e 111 155
e 111 157
e 111 162
e 111 182
e 111 203
e 111 206
e 111 211
e 111 224
e 111 225
e 111 232
e 111 236
e 112 122
e 112 136
e 112 148
e 112 152
e 112 157
e 112 159
e 112 179
e 112 202
e 112 208
e 112 223
e 112 228
e 112 229
e 113 114
e 113 125
e 113 146
e 113 148
e 113 166
e 113 178
e 113 199
e 113 200
e 113 202
e 113 206
e 113 207
e 113 232
e 113 234
e 114 124
e 114 126
e 114 132
e 114 145
e 114 160
e 114 180
e 114 197
e 114 202
e 114 222
e 114 235
e 114 241
e 115 127
e 115 129
e 115 140
e 115 144
e 115 151
e 115 157
e 115 163
e 115 173
e 115 176
e 115 187
e 115 189
e 115 193
e 115 207
e 115 209
e 115 221
e 115 223
e 115 237
e 115 242
e 115 247
e 116 128
e 116 141
e 116 143
e 116 150
e 116 169
e 116 178
e 116 199
e 116 204
e 116 208
e 116 218
e 116 221
e 117 136
e 117 198
e 117 212
e 117 218
e 117 225
e 117 237
e 117 241
e 118 132
e 118 145
e 118 146
e 118 156
e 118 178
e 118 183
e 118 184
e 118 212
e 118 222
e 118 242
e 119 125
e 119 153
e 119 169
e 119 170
e 119 171
e 119 182
e 119 197
e 119 200
e 119 205
e 119 210
e 119 213
e 119 229
e 119 241
e 120 135
e 120 136
e 120 156
e 120 188
e 120 207
e 120 220
e 120 221
e 120 228
e 120 229
e 120 236
e 120 245
e 120 248
e 121 122
e 121 148
e 121 164
e 121 171
e 121 186
e 121 197
e 121 221
e 121 230
e 121 239
e 121 247
e 122 133
e 122 135
e 122 148
e 122 160
e 122 190
e 122 215
e 122 226
e 122 232
e 123 135
e 123 143
e 123 150
e 123 162
e 123 166
e 123 167
e 123 170
e 123 181
e 123 184
e 123 233
e 123 248
e 124 133
e 124 144
e 124 160
e 124 203
e 124 206
e 124 209
e 124 225
e 124 227
e 124 231
e 124 232
e 124 236
e 124 244
e 125 135
e 125 147
e 125 151
e 125 161
e 125 170
e 125 172
e 125 178
e 125 181
e 125 189
e 125 207
e 125 217
e 125 226
e 125 229
e 126 139
e 126 143
e 126 150
e 126 157
e 126 165
e 126 170
e 126 179
e 126 181
e 126 189
e 126 194
e 126 206
e 126 217
e 126 242
e 126 246
e 127 131
e 127 141
e 127 142
e 127 154
e 127 159
e 127 166
e 127 176
e 127 192
e 127 239
e 127 240
e 127 246
e 128 138
e 128 152
e 128 159
e 128 162
e 128 170
e 128 191
e 128 196
e 128 225
e 128 226
e 128 229
e 128 236
e 128 237
e 128 240
e 129 165
e 129 166
e 129 181
e 129 189
e 129 209
e 129 211
e 129 217
e 129 240
e 129 246
e 130 141
e 130 151
e 130 167
e 130 172
e 130 186
e 130 193
e 130 203
e 130 204
e 130 210
e 130 222
e 130 225
e 130 231
e 130 246
e 130 247
e 130 249
e 131 137
e 131 143
e 131 144
e 131 145
e 131 160
e 131 165
e 131 167
e 131 170
e 131 174
e 131 178
e 131 208
e 131 210
e 131 214
e 131 215
e 131 222
e 131 238
e 131 247
e 131 248
e 132 133
e 132 143
e 132 148
e 132 151
e 132 153
e 132 159
e 132 179
e 132 187
e 132 204
e 132 213
e 132 222
e 132 223
e 132 226
e 132 228
e 132 236
e 133 159
e 133 210
e 133 229
e 133 243
e 133 249
e 134 139
e 134 145
e 134 159
e 134 163
e 134 164
e 134 167
e 134 168
e 134 176
e 134 178
e 134 179
e 134 194
e 134 229
e 134 234
e 134 238
e 134 241
e 135 138
e 135 147
e 135 150
e 135 156
e 135 162
e 135 168
e 135 169
e 135 174
e 135 179
e 135 183
e 135 189
e 135 198
e 135 226
e 135 238
e 136 150
e 136 153
e 136 166
e 136 183
e 136 187
e 136 199
e 136 212
e 136 231
e 136 244
e 137 159
e 137 170
e 137 171
e 137 172
e 137 178
e 137 185
e 137 188
e 137 206
e 137 208
e 137 213
e 137 214
e 137 217
e 138 157
e 138 174
e 138 192
e 138 214
e 138 224
e 138 225
e 138 233
e 138 242
e 139 150
e 139 151
e 139 152
e 139 154
e 139 157
e 139 172
e 139 178
e 139 193
e 139 211
e 139 218
e 139 233
e 139 242
e 140 147
e 140 162
e 140 173
e 140 186
e 140 187
e 140 196
e 140 197
e 140 208
e 140 216
e 140 227
e 140 241
e 140 246
e 141 145
e 141 149
e 141 153
e 141 168
e 141 169
e 141 174
e 141 182
e 141 193
e 141 210
e 141 214
e 141 215
e 141 232
e 141 234
e 141 235
e 141 236
e 141 243
e 141 247
e 142 145
e 142 167
e 142 168
e 142 187
e 142 192
e 142 195
e 142 205
e 142 213
e 142 221
e 142 224
e 143 147
e 143 155
e 143 164
e 143 170
e 143 173
e 143 189
e 143 192
e 143 193
e 143 200
e 143 209
e 143 234
e 143 239
e 143 244
e 144 150
e 144 156
e 144 159
e 144 187
e 144 188
e 144 199
e 144 215
e 144 226
e 144 238
e 144 241
e 145 152
e 145 160
e 145 165
e 145 172
e 145 182
e 145 198
e 145 199
e 145 219
e 145 225
e 146 148
e 146 177
e 146 188
e 146 193
e 146 194
e 146 195
e 146 201
e 146 202
e 146 203
e 146 208
e 146 218
e 146 232
e 146 234
e 146 235
e 147 178
e 147 187
e 147 194
e 147 223
e 147 226
e 147 230
e 147 232
e 147 236
e 147 238
e 148 149
e 148 150
e 148 163
e 148 182
e 148 186
e 148 191
e 148 206
e 148 209
e 148 214
e 148 221
e 148 223
e 148 225
e 148 232
e 148 243
e 149 177
e 149 191
e 149 200
e 149 208
e 149 210
e 149 219
e 149 232
e 149 247
e 150 165
e 150 169
e 150 177
e 150 179
e 150 184
e 150 185
e 150 188
e 150 193
e 150 194
e 150 201
e 150 205
e 150 208
e 150 210
e 150 213
e 150 225
e 150 234
e 150 236
e 151 154
e 151 160
e 151 167
e 151 179
e 151 182
e 151 207
e 151 238
e 152 162
e 152 164
e 152 170
e 152 205
e 152 208
e 152 249
e 153 166
e 153 181
e 153 183
e 153 186
e 153 191
e 153 212
e 153 218
e 153 230
e 153 233
e 153 234
e 153 239
e 153 240
e 154 159
e 154 168
e 154 197
e 154 199
e 154 205
e 154 208
e 154 212
e 154 214
e 154 216
e 154 229
e 154 243
e 155 177
e 155 187
e 155 189
e 155 207
e 156 172
e 156 184
e 156 192
e 156 196
e 156 212
e 156 222
e 156 232
e 156 234
e 156 235
e 156 244
e 157 159
e 157 194
e 157 204
e 157 209
e 157 214
e 157 216
e 157 221
e 157 230
e 157 237
e 157 249
e 158 176
e 158 180
e 158 188
e 158 212
e 158 220
e 158 245
e 159 163
e 159 188
e 159 194
e 159 197
e 159 198
e 159 207
e 159 208
e 159 216
e 159 222
e 159 223
e 159 226
e 159 239
e 159 242
e 160 173
e 160 190
e 160 200
e 160 202
e 160 212
e 160 220
e 160 239
e 160 244
e 161 169
e 161 179
e 161 185
e 161 190
e 161 198
e 161 201
e 161 202
e 161 213
e 161 234
e 161 238
e 161 248
e 162 173
e 162 175
e 162 181
e 162 195
e 162 200
e 162 206
e 162 227
e 162 230
e 162 231
e 163 165
e 163 168
e 163 170
e 163 179
e 163 212
e 163 217
e 163 222
e 163 223
e 163 244
e 164 169
e 164 175
e 164 177
e 164 180
e 164 182
e 164 184
e 164 193
e 164 232
e 164 237
e 164 242
e 165 166
e 165 177
e 165 179
e 165 186
e 165 189
e 165 194
e 165 220
e 165 221
e 165 223
e 165 228
e 165 237
e 166 178
e 166 184
e 166 185
e 166 187
e 166 190
e 166 192
e 166 198
e 166 201
e 166 216
e 166 219
e 166 224
e 166 225
e 166 237
e 166 238
e 166 240
e 166 243
e 166 244
e 167 177
e 167 206
e 167 212
e 167 215
e 167 225
e 167 233
e 167 240
e 167 242
e 168 172
e 168 174
e 168 176
e 168 178
e 168 198
e 168 206
e 168 213
e 168 218
e 168 235
e 168 238
e 168 246
e 169 171
e 169 178
e 169 204
e 169 205
e 169 222
e 169 225
e 170 171
e 170 182
e 170 189
e 170 198
e 170 230
e 170 240
e 170 241
e 170 247
e 171 184
e 171 186
e 171 208
e 171 213
e 171 227
e 171 247
e 172 174
e 172 188
e 172 214
e 172 219
e 172 223
e 172 226
e 172 230
e 172 244
e 173 174
e 173 179
e 173 200
e 173 206
e 173 208
e 173 219
e 173 221
e 173 233
e 173 234
e 173 248
e 173 249
e 174 201
e 174 205
e 174 216
e 174 221
e 174 224
e 174 230
e 174 237
e 174 246
e 174 247
e 175 180
e 175 183
e 175 187
e 175 199
e 175 210
e 175 213
e 175 229
e 175 248
e 176 182
e 176 188
e 176 198
e 176 218
e 176 246
e 177 186
e 177 190
e 177 191
e 177 218
e 177 222
e 177 229
e 177 233
e 177 235
e 177 236
e 178 189
e 178 200
e 178 222
e 178 242
e 178 245
e 179 180
e 179 202
e 179 204
e 179 208
e 179 235
e 179 244
e 179 248
e 180 181
e 180 186
e 180 220
e 180 224
e 180 231
e 180 234
e 181 190
e 181 200
e 181 206
e 181 212
e 181 213
e 181 236
e 181 238
e 181 239
e 181 249
e 182 185
e 182 188
e 182 191
e 182 193
e 182 196
e 182 199
e 182 208
e 182 212
e 182 236
e 182 242
e 183 187
e 183 197
e 183 201
e 183 202
e 183 210
e 183 236
e 184 192
e 184 194
e 184 206
e 184 209
e 184 210
e 184 212
e 184 215
e 184 234
e 184 237
e 185 202
e 185 216
e 185 245
e 186 196
e 186 202
e 186 212
e 186 219
e 186 236
e 186 239
e 187 192
e 187 193
e 187 198
e 187 218
e 187 227
e 187 228
e 187 243
e 187 247
e 187 248
e 188 191
e 188 200
e 188 201
e 188 205
e 188 215
e 188 221
e 188 228
e 188 244
e 189 192
e 189 198
e 189 202
e 189 212
e 189 213
e 189 220
e 189 246
e 190 219
e 190 234
e 190 243
e 191 196
e 191 206
e 191 214
e 191 242
e 192 193
e 192 196
e 192 198
e 192 223
e 192 234
e 192 245
e 193 204
e 193 205
e 193 212
e 193 216
e 193 244
e 194 197
e 194 198
e 194 206
e 194 224
e 194 226
e 194 228
e 194 232
e 195 196
e 195 199
e 195 226
e 195 235
e 195 249
e 196 223
e 196 237
e 196 247
e 197 216
e 197 249
e 198 199
e 198 209
e 198 210
e 198 212
e 198 213
e 198 241
e 198 242
e 198 247
e 198 249
e 199 203
e 199 207
e 199 218
e 199 219
e 199 222
e 199 227
e 199 237
e 199 244
e 199 245
e 200 214
e 200 221
e 200 226
e 200 233
e 200 240
e 200 241
e 201 217
e 201 223
e 201 224
e 201 231
e 201 245
e 202 203
e 202 222
e 202 227
e 202 242
e 202 243
e 203 204
e 203 208
e 203 210
e 203 224
e 203 236
e 203 237
e 203 246
e 203 248
e 204 213
e 204 217
e 204 232
e 204 235
e 204 239
e 204 240
e 205 225
e 205 241
e 206 215
e 206 248
e 207 215
e 207 225
e 207 228
e 207 242
e 207 245
e 208 209
e 208 222
e 208 235
e 208 239
e 208 241
e 208 244
e 209 218
e 209 227
e 209 231
e 209 246
e 210 211
e 210 212
e 210 215
e 210 219
e 210 244
e 211 225
e 211 229
e 212 214
e 212 224
e 212 226
e 212 227
e 212 234
e 212 249
e 213 217
e 214 247
e 214 248
e 215 228
e 216 231
e 217 222
e 217 241
e 217 244
e 218 220
e 218 232
e 218 235
e 219 225
e 219 231
e 220 226
e 220 235
e 220 242
e 221 222
e 221 233
e 221 244
e 222 241
e 222 246
e 222 247
e 223 237
e 223 247
e 224 226
e 224 241
e 224 249
e 225 233
e 226 233
e 226 237
e 226 244
e 227 234
e 227 245
e 228 231
e 228 240
e 228 246
e 229 238
e 231 244
e 231 245
e 232 234
e 234 238
e 235 239
e 235 244
e 237 240
e 237 241
e 237 247
e 242 245
e 243 246
e 246 249
